InboundTrucks  = 40;
OutboundTrucks = 20;
InboundDoors   = 6;
OutboundDoors  = 6;
ReleaseTime    = [97,49,82,60,52,111,25,25,86,50,7,54,56,108,57,4,115,67,41,25,30,63,80,78,96,109,82,66,24,111,51,41,60,16,54,59,95,91,106,90];
UnloadTime     = [12,43,25,26,38,40,41,27,12,21,16,12,34,26,10,21,23,22,17,32,18,24,22,37,25,29,32,22,29,28,31,39,25,32,13,22,34,35,43,32];
LoadTime       = [16,18,10,12,22,16,16,8,11,23,15,5,7,26,21,17,23,15,8,14];
TransferTime   = [| 0,48,0,0,0,0,0,21,0,0,0,0,38,0,0,16,20,40,0,0 | 0,34,22,25,0,36,0,44,0,0,24,0,0,0,24,0,0,45,12,0 | 0,0,0,0,0,0,0,0,12,0,0,22,45,0,0,0,0,0,0,0 | 0,0,0,0,0,0,0,0,0,0,0,47,0,40,0,0,0,0,33,0 | 0,22,0,38,12,0,0,0,19,0,0,12,0,0,0,14,0,0,0,0 | 0,0,0,0,22,0,0,0,0,0,0,0,0,0,0,0,0,0,0,0 | 0,0,0,0,0,0,0,49,0,0,36,0,0,0,0,0,0,15,32,0 | 0,0,21,0,0,0,0,14,0,14,0,0,0,0,0,26,0,0,0,0 | 22,0,0,19,0,0,50,0,0,0,19,0,0,0,0,0,0,0,0,0 | 31,0,0,0,0,0,0,39,0,0,0,0,25,0,27,32,0,15,0,0 | 0,0,43,0,32,0,14,26,0,0,0,0,0,0,29,45,0,0,0,48 | 42,0,0,35,0,0,47,0,0,0,26,0,32,0,0,0,0,26,0,0 | 0,0,0,0,45,0,0,0,11,48,0,0,0,0,0,0,0,0,17,0 | 0,0,0,0,0,0,0,36,0,0,0,0,0,0,0,0,0,23,0,0 | 0,35,20,0,48,49,0,0,0,0,0,13,0,0,0,0,47,0,0,0 | 0,0,0,16,0,0,0,0,0,42,0,0,17,36,36,25,0,0,0,0 | 0,0,23,20,0,0,0,35,35,36,0,0,0,0,32,0,0,0,0,0 | 50,0,0,0,0,0,39,0,0,0,0,0,0,0,37,37,0,0,0,34 | 0,0,0,0,0,0,0,0,0,0,0,0,0,0,0,0,0,0,17,16 | 0,0,46,27,37,16,24,0,38,0,0,16,0,32,22,0,49,30,26,13 | 33,0,0,0,0,0,25,0,0,0,0,0,18,33,0,0,48,41,0,0 | 0,0,0,16,0,11,0,26,0,0,0,0,0,10,47,0,0,0,0,0 | 0,0,0,0,0,26,0,0,0,31,0,0,0,0,35,0,27,0,29,0 | 0,0,0,0,0,17,0,0,0,0,0,0,0,0,0,0,0,0,0,0 | 0,0,36,0,0,0,0,0,0,0,0,0,31,0,11,0,0,0,0,0 | 0,0,0,0,30,0,0,0,0,17,0,0,0,34,0,0,45,19,0,0 | 0,0,0,0,50,0,0,0,0,0,0,0,0,47,0,0,0,18,0,39 | 30,0,0,32,26,30,0,41,0,0,0,0,41,0,0,0,26,0,0,0 | 0,31,0,0,0,0,0,0,0,0,0,0,0,0,0,0,0,36,0,0 | 0,0,33,0,22,0,0,10,0,10,0,41,0,0,0,0,0,0,44,0 | 42,10,16,0,0,0,23,0,30,40,0,0,0,32,41,0,0,49,35,0 | 0,0,0,17,12,0,0,0,0,0,0,0,34,0,0,0,24,27,0,0 | 0,0,28,27,0,0,0,0,0,0,0,0,0,0,39,0,0,0,0,0 | 0,0,0,34,0,44,0,0,18,0,0,0,26,0,0,43,0,0,0,0 | 35,0,0,0,10,0,0,0,0,0,28,0,0,0,0,27,10,0,36,13 | 10,0,0,12,40,0,0,0,0,27,16,0,0,15,0,0,0,0,0,30 | 0,39,47,0,0,0,0,0,0,0,0,0,0,0,0,0,0,0,43,14 | 22,15,0,0,0,0,0,0,0,0,0,0,0,41,0,0,0,0,12,0 | 0,24,0,0,0,0,36,0,0,0,0,0,0,0,0,27,0,0,0,0 | 0,0,0,0,42,0,0,0,0,26,0,0,39,0,39,0,10,0,0,0 |];
